NAME : 10_3_3_1_(06).dat
COMMENT : Henke, Speranza, Wäscher, 2015
TYPE : MCVRP
DIMENSION : 11
EDGE_WEIGHT_TYPE : DISTANCE_MATRIX
CAPACITY : 1000
VEHICLES : 2
PRODUCT TYPES : 3
COMPARTMENTS : 3
NODE_COORD_SECTION
1 50 50
2 97.23 30.34
3 13.83 4.19
4 28.07 98.27
5 19.88 82.92
6 9.57 3.45
7 85.6 17.36
8 74.61 19.84
9 13.56 17.91
10 12.36 38.18
11 59.1 76.58
DEMAND_SECTION
1 0 0 0
2 84 0 0
3 0 342 0
4 33 0 0
5 0 40 0
6 0 0 175
7 143 0 0
8 81 0 0
9 158 0 0
10 138 0 0
11 0 0 80
DEPOT_SECTION
1
EOF